20
16	197	221	78	50
23	103	275	51	13
20	138	85	4	43
8	277	48	55	73
5	107	119	48	50
14	167	262	12	64
2	57	258	49	98
1	243	213	33	3
10	272	290	50	8
23	219	172	54	32
8	203	231	46	50
4	71	157	88	59
2	250	124	31	87
23	278	104	76	13
11	170	251	53	27
26	123	116	34	97
20	139	106	61	75
24	81	143	6	26
26	166	94	55	79
19	263	65	11	96
